tsp_instances/TSP50/instance15.tsp
NODE_COORD_SECTION
0 170 112
1 138 159
2 2 134
3 96 107
4 104 31
5 14 53
6 152 33
7 56 49
8 108 140
9 63 12
10 125 93
11 110 99
12 123 132
13 39 45
14 102 167
15 126 134
16 93 173
17 139 23
18 5 183
19 144 137
20 27 112
21 8 52
22 150 106
23 128 84
24 82 104
25 136 97
26 83 114
27 87 39
28 131 11
29 95 136
30 162 12
31 23 93
32 150 137
33 175 106
34 87 41
35 5 136
36 140 49
37 193 16
38 47 137
39 143 68
40 49 176
41 79 35
42 75 173
43 153 125
44 193 176
45 199 148
46 178 147
47 168 123
48 129 49
49 86 63
