tsp_instances/TSP50/instance15.opt.tour
TOUR_SECTION
1
34
23
44
33
20
16
13
9
30
27
25
4
12
11
26
24
40
49
37
7
38
31
18
29
5
50
35
28
42
10
8
14
6
22
32
21
39
36
3
19
41
43
17
15
2
45
46
47
48
-1